n = 10; 

m= 10; 

																							
77	94	99	97	29	79	85	73	95	86
94	94	46	18	93	58	85	58	97	10
53	28	88	10	32	38	25	24	90	7
46	52	79	45	96	10	44	24	85	75
98	2	85	44	7	73	19	69	12	73
7	2	44	38	24	76	85	61	32	90
64	2	16	35	53	40	81	26	85	4
11	99	37	50	56	69	22	56	67	63
3	87	58	85	33	71	58	56	64	43
53	28	88	10	32	38	25	24	90	7
 

 


	 












 
 


 

 
